NAME          
ROWS
 N  OBJ
 L  c1
 L  c2
COLUMNS
    MARKER    'MARKER'                 'INTORG'
    x[1]      c1        592
    x[1]      c2        814
    x[1]      OBJ       -285
    x[2]      c1        568
    x[2]      c2        485
    x[2]      OBJ       -222
    x[3]      c1        205
    x[3]      c2        317
    x[3]      OBJ       -850
    x[4]      c1        490
    x[4]      c2        157
    x[4]      OBJ       -950
    x[5]      c1        764
    x[5]      c2        621
    x[5]      OBJ       -587
    x[6]      c1        51
    x[6]      c2        434
    x[6]      OBJ       -922
    x[7]      c1        320
    x[7]      c2        801
    x[7]      OBJ       -266
    x[8]      c1        956
    x[8]      c2        497
    x[8]      OBJ       -751
    x[9]      c1        251
    x[9]      c2        93
    x[9]      OBJ       -564
    x[10]     c1        127
    x[10]     c2        229
    x[10]     OBJ       -935
    x[11]     c1        853
    x[11]     c2        402
    x[11]     OBJ       -210
    x[12]     c1        682
    x[12]     c2        564
    x[12]     OBJ       -816
    x[13]     c1        293
    x[13]     c2        699
    x[13]     OBJ       -479
    x[14]     c1        100
    x[14]     c2        200
    x[14]     OBJ       -977
    x[15]     c1        413
    x[15]     c2        40
    x[15]     OBJ       -296
    x[16]     c1        471
    x[16]     c2        502
    x[16]     OBJ       -256
    x[17]     c1        77
    x[17]     c2        841
    x[17]     OBJ       -473
    x[18]     c1        437
    x[18]     c2        154
    x[18]     OBJ       -903
    x[19]     c1        275
    x[19]     c2        673
    x[19]     OBJ       -876
    x[20]     c1        928
    x[20]     c2        754
    x[20]     OBJ       -199
RHS
    rhs       c1        4426
    rhs       c2        4638
RANGES
BOUNDS
 BV bounds    x[1]
 BV bounds    x[2]
 BV bounds    x[3]
 BV bounds    x[4]
 BV bounds    x[5]
 BV bounds    x[6]
 BV bounds    x[7]
 BV bounds    x[8]
 BV bounds    x[9]
 BV bounds    x[10]
 BV bounds    x[11]
 BV bounds    x[12]
 BV bounds    x[13]
 BV bounds    x[14]
 BV bounds    x[15]
 BV bounds    x[16]
 BV bounds    x[17]
 BV bounds    x[18]
 BV bounds    x[19]
 BV bounds    x[20]
ENDATA
